minizinc/sudoku_problems2/sudoku_p57.dzn
%
% sudoku_p57.dzn
% See http://www.hakank.org/minizinc/sudoku_gcc.mzn
% 
% This problem is problem 57 from
% Gecode's sudoku.cpp
% http://www.gecode.org/gecode-doc-latest/sudoku_8cpp-source.html
% 
x = array2d(1..n, 1..n, [   
% http://janko.at/Raetsel/Sudoku/504.a.htm
% 57
  _,  2,  1,  _,  _, 11, 13,  _,  _,  _, 14, 15,  6, 16,  _,  _,
  _,  _,  6,  _,  5,  _, 15,  _,  _,  _,  _, 13,  _,  8,  _, 14,
 16,  4,  _,  _,  _,  _,  _, 14, 11,  _,  7,  _,  1,  _, 13,  3,
 12,  _, 13,  _,  _,  3,  7, 16,  _,  _,  6,  1,  _,  _,  _,  _,
 10, 11,  _, 13,  8,  _,  _,  9,  _,  1,  _, 14,  _,  _, 15,  _,
  6,  _, 15,  4,  _,  _, 16,  _,  _, 13,  _,  _,  8,  _,  _, 11,
  _,  _,  _,  _, 11, 13,  _,  1, 15,  _,  8,  _,  7,  _, 12,  9,
  _,  _,  3,  _,  _,  _,  6,  _,  _, 16,  _, 11, 14, 13,  _,  _,
  _,  _, 11,  9,  1,  _, 12,  _,  _, 14,  _,  _,  _, 10,  _,  _,
  4,  7,  _,  2,  _,  6,  _, 10,  3,  _,  1, 16,  _,  _,  _,  _,
  8,  _,  _,  3,  _,  _, 14,  _,  _, 11,  _,  _, 15,  1,  _, 16,
  _,  1,  _,  _,  7,  _,  3,  _, 13,  _,  _, 12,  9,  _,  2,  5,
  _,  _,  _,  _, 16, 15,  _,  _,  2,  8, 11,  _,  _,  4,  _, 10,
  5, 10,  _,  8,  _,  4,  _, 11,  1,  _,  _,  _,  _,  _, 16, 15,
 13,  _,  2,  _, 12,  _,  _,  _,  _, 15,  _,  6,  _,  7,  _,  _,
  _,  _,  4,  1, 13, 10,  _,  _,  _,  7, 16,  _,  _, 12,  9,  _
]);

n = 16;


